
Gurobi 9.5.2 (win64) logging started Fri Jun  7 17:57:41 2024

Set parameter LogFile to value "./ccga_results/2024-06-07 17-57-39-888/FMP_TimeStampConvert_gurobi_log.txt"
Set parameter TimeLimit to value 35998

Gurobi 9.5.2 (win64) logging started Fri Jun  7 17:57:42 2024

Set parameter LogFile to value "./ccga_results/2024-06-07 17-57-39-888/FMP_TimeStampConvert_gurobi_log.txt"
Set parameter TimeLimit to value 35998
Gurobi Optimizer version 9.5.2 build v9.5.2rc0 (win64)
Thread count: 10 physical cores, 20 logical processors, using up to 20 threads
Optimize a model with 1216 rows, 1083 columns and 5938 nonzeros
Model fingerprint: 0xa7ae544f
Variable types: 1059 continuous, 24 integer (24 binary)
Coefficient statistics:
  Matrix range     [1e-02, 5e+03]
  Objective range  [1e+00, 1e+00]
  Bounds range     [0e+00, 0e+00]
  RHS range        [1e+00, 5e+03]
Presolve removed 397 rows and 363 columns
Presolve time: 0.01s
Presolved: 819 rows, 720 columns, 3796 nonzeros
Variable types: 708 continuous, 12 integer (12 binary)
Found heuristic solution: objective 100.0000000

Root relaxation: objective 1.000000e+03, 182 iterations, 0.00 seconds (0.00 work units)

    Nodes    |    Current Node    |     Objective Bounds      |     Work
 Expl Unexpl |  Obj  Depth IntInf | Incumbent    BestBd   Gap | It/Node Time

     0     0 1000.00000    0    2  100.00000 1000.00000   900%     -    0s
     0     0 1000.00000    0    3  100.00000 1000.00000   900%     -    0s
     0     0 1000.00000    0    5  100.00000 1000.00000   900%     -    0s
     0     0 1000.00000    0    5  100.00000 1000.00000   900%     -    0s
     0     0 1000.00000    0    5  100.00000 1000.00000   900%     -    0s
     0     0 1000.00000    0    2  100.00000 1000.00000   900%     -    0s
     0     0 1000.00000    0    4  100.00000 1000.00000   900%     -    0s
     0     0 1000.00000    0    2  100.00000 1000.00000   900%     -    0s
     0     0 1000.00000    0    4  100.00000 1000.00000   900%     -    0s
     0     2 1000.00000    0    2  100.00000 1000.00000   900%     -    0s

Cutting planes:
  Gomory: 3
  MIR: 30
  Flow cover: 2
  RLT: 16
  Relax-and-lift: 3
  PSD: 1

Explored 8191 nodes (345730 simplex iterations) in 3.48 seconds (4.75 work units)
Thread count was 20 (of 20 available processors)

Solution count 1: 100 

Optimal solution found (tolerance 5.00e-02)
Best objective 1.000000000000e+02, best bound 1.000000000000e+02, gap 0.0000%

User-callback calls 16975, time in user-callback 0.00 sec

Gurobi 9.5.2 (win64) logging started Fri Jun  7 17:57:45 2024

Set parameter LogFile to value "./ccga_results/2024-06-07 17-57-39-888/FMP_TimeStampConvert_gurobi_log.txt"
Set parameter TimeLimit to value 35994

Gurobi 9.5.2 (win64) logging started Fri Jun  7 17:57:45 2024

Set parameter LogFile to value "./ccga_results/2024-06-07 17-57-39-888/FMP_TimeStampConvert_gurobi_log.txt"
Set parameter TimeLimit to value 35994
Gurobi Optimizer version 9.5.2 build v9.5.2rc0 (win64)
Thread count: 10 physical cores, 20 logical processors, using up to 20 threads
Optimize a model with 1216 rows, 1083 columns and 5488 nonzeros
Model fingerprint: 0x5b03f3e0
Variable types: 1059 continuous, 24 integer (24 binary)
Coefficient statistics:
  Matrix range     [1e-02, 2e+03]
  Objective range  [1e+00, 1e+00]
  Bounds range     [0e+00, 0e+00]
  RHS range        [1e+00, 2e+03]
Presolve removed 567 rows and 648 columns
Presolve time: 0.00s
Presolved: 649 rows, 435 columns, 2496 nonzeros
Variable types: 423 continuous, 12 integer (12 binary)
Found heuristic solution: objective 1.0000000

Root relaxation: objective 1.000000e+03, 332 iterations, 0.00 seconds (0.00 work units)

    Nodes    |    Current Node    |     Objective Bounds      |     Work
 Expl Unexpl |  Obj  Depth IntInf | Incumbent    BestBd   Gap | It/Node Time

     0     0 1000.00000    0    2    1.00000 1000.00000      -     -    0s
H    0     0                      61.5384615 1000.00000  1525%     -    0s
     0     0 1000.00000    0    1   61.53846 1000.00000  1525%     -    0s
     0     0 1000.00000    0    2   61.53846 1000.00000  1525%     -    0s
H    0     0                      86.9230769 1000.00000  1050%     -    0s
     0     0 1000.00000    0    4   86.92308 1000.00000  1050%     -    0s
     0     0 1000.00000    0    4   86.92308 1000.00000  1050%     -    0s
     0     0 1000.00000    0    4   86.92308 1000.00000  1050%     -    0s
     0     0 1000.00000    0    4   86.92308 1000.00000  1050%     -    0s
     0     0 1000.00000    0    4   86.92308 1000.00000  1050%     -    0s
H    0     0                      92.3076923 1000.00000   983%     -    0s
H    0     0                      97.0833333 1000.00000   930%     -    0s
H    0     0                     102.0833333 1000.00000   880%     -    0s
     0     0 1000.00000    0    3  102.08333 1000.00000   880%     -    0s
     0     2 1000.00000    0    1  102.08333 1000.00000   880%     -    0s
H  147   125                     104.2857143  250.00000   140%  12.3    0s
*  150   125              12     104.3478261  250.00000   140%  13.9    0s
*  425   227              12     104.3859649  250.00000   139%  29.6    0s
* 1002   306              12     104.4117647  250.00000   139%  40.6    0s

Cutting planes:
  Gomory: 2
  MIR: 22
  Flow cover: 3
  RLT: 17
  Relax-and-lift: 5
  PSD: 4

Explored 8191 nodes (436816 simplex iterations) in 3.81 seconds (5.08 work units)
Thread count was 20 (of 20 available processors)

Solution count 10: 104.412 104.386 104.348 ... 1

Optimal solution found (tolerance 5.00e-02)
Best objective 1.044117647059e+02, best bound 1.044117647059e+02, gap 0.0000%

User-callback calls 17288, time in user-callback 0.00 sec

Gurobi 9.5.2 (win64) logging started Fri Jun  7 17:57:49 2024

Set parameter LogFile to value "./ccga_results/2024-06-07 17-57-39-888/FMP_TimeStampConvert_gurobi_log.txt"
Set parameter TimeLimit to value 35990

Gurobi 9.5.2 (win64) logging started Fri Jun  7 17:57:49 2024

Set parameter LogFile to value "./ccga_results/2024-06-07 17-57-39-888/FMP_TimeStampConvert_gurobi_log.txt"
Set parameter TimeLimit to value 35990
Gurobi Optimizer version 9.5.2 build v9.5.2rc0 (win64)
Thread count: 10 physical cores, 20 logical processors, using up to 20 threads
Optimize a model with 1216 rows, 1083 columns and 5728 nonzeros
Model fingerprint: 0xb07c10e1
Variable types: 1059 continuous, 24 integer (24 binary)
Coefficient statistics:
  Matrix range     [1e-02, 5e+03]
  Objective range  [1e+00, 1e+00]
  Bounds range     [0e+00, 0e+00]
  RHS range        [1e+00, 5e+03]
Presolve removed 472 rows and 488 columns
Presolve time: 0.02s
Presolved: 744 rows, 595 columns, 3215 nonzeros
Variable types: 583 continuous, 12 integer (12 binary)
Found heuristic solution: objective 14.2857143

Root relaxation: objective 1.000000e+03, 288 iterations, 0.00 seconds (0.01 work units)

    Nodes    |    Current Node    |     Objective Bounds      |     Work
 Expl Unexpl |  Obj  Depth IntInf | Incumbent    BestBd   Gap | It/Node Time

     0     0 1000.00000    0    2   14.28571 1000.00000  6900%     -    0s
     0     0 1000.00000    0    2   14.28571 1000.00000  6900%     -    0s
     0     0 1000.00000    0    2   14.28571 1000.00000  6900%     -    0s
     0     0 1000.00000    0    2   14.28571 1000.00000  6900%     -    0s
H    0     0                      65.3846154 1000.00000  1429%     -    0s
     0     0 1000.00000    0    2   65.38462 1000.00000  1429%     -    0s
H    0     0                      66.0000000 1000.00000  1415%     -    0s
     0     0 1000.00000    0    2   66.00000 1000.00000  1415%     -    0s
     0     0  950.00000    0    1   66.00000  950.00000  1339%     -    0s
     0     2  950.00000    0    1   66.00000  950.00000  1339%     -    0s

Cutting planes:
  Gomory: 2
  MIR: 42
  Flow cover: 3
  RLT: 15
  Relax-and-lift: 4

Explored 8191 nodes (388801 simplex iterations) in 4.14 seconds (6.22 work units)
Thread count was 20 (of 20 available processors)

Solution count 3: 66 65.3846 14.2857 

Optimal solution found (tolerance 5.00e-02)
Best objective 6.600000000000e+01, best bound 6.600000000000e+01, gap 0.0000%

User-callback calls 17310, time in user-callback 0.00 sec

Gurobi 9.5.2 (win64) logging started Fri Jun  7 17:57:54 2024

Set parameter LogFile to value "./ccga_results/2024-06-07 17-57-39-888/FMP_TimeStampConvert_gurobi_log.txt"
Set parameter TimeLimit to value 35985

Gurobi 9.5.2 (win64) logging started Fri Jun  7 17:57:54 2024

Set parameter LogFile to value "./ccga_results/2024-06-07 17-57-39-888/FMP_TimeStampConvert_gurobi_log.txt"
Set parameter TimeLimit to value 35985
Gurobi Optimizer version 9.5.2 build v9.5.2rc0 (win64)
Thread count: 10 physical cores, 20 logical processors, using up to 20 threads
Optimize a model with 1216 rows, 1083 columns and 5770 nonzeros
Model fingerprint: 0x75f76258
Variable types: 1059 continuous, 24 integer (24 binary)
Coefficient statistics:
  Matrix range     [1e-02, 5e+03]
  Objective range  [1e+00, 1e+00]
  Bounds range     [0e+00, 0e+00]
  RHS range        [1e+00, 5e+03]
Presolve removed 459 rows and 467 columns
Presolve time: 0.02s
Presolved: 757 rows, 616 columns, 3318 nonzeros
Variable types: 604 continuous, 12 integer (12 binary)
Found heuristic solution: objective 33.3333333

Root relaxation: objective 1.000000e+03, 307 iterations, 0.00 seconds (0.01 work units)

    Nodes    |    Current Node    |     Objective Bounds      |     Work
 Expl Unexpl |  Obj  Depth IntInf | Incumbent    BestBd   Gap | It/Node Time

     0     0 1000.00000    0    2   33.33333 1000.00000  2900%     -    0s
     0     0 1000.00000    0    2   33.33333 1000.00000  2900%     -    0s
     0     0 1000.00000    0    2   33.33333 1000.00000  2900%     -    0s
     0     0 1000.00000    0    2   33.33333 1000.00000  2900%     -    0s
     0     0 1000.00000    0    1   33.33333 1000.00000  2900%     -    0s
     0     0 1000.00000    0    1   33.33333 1000.00000  2900%     -    0s
     0     0  950.00000    0    1   33.33333  950.00000  2750%     -    0s
     0     2  950.00000    0    1   33.33333  950.00000  2750%     -    0s
  6153   379  250.00000   11    1   33.33333  333.33333   900%  56.8    5s

Cutting planes:
  Gomory: 1
  MIR: 22
  Flow cover: 4
  RLT: 14
  Relax-and-lift: 4

Explored 8191 nodes (493682 simplex iterations) in 5.66 seconds (9.55 work units)
Thread count was 20 (of 20 available processors)

Solution count 1: 33.3333 

Optimal solution found (tolerance 5.00e-02)
Best objective 3.333333333333e+01, best bound 3.333333333333e+01, gap 0.0000%

User-callback calls 17477, time in user-callback 0.02 sec
Set parameter TimeLimit to value 35980
Gurobi Optimizer version 9.5.2 build v9.5.2rc0 (win64)
Thread count: 10 physical cores, 20 logical processors, using up to 20 threads
Optimize a model with 2432 rows, 2141 columns and 11528 nonzeros
Model fingerprint: 0x3165a22e
Variable types: 2117 continuous, 24 integer (24 binary)
Coefficient statistics:
  Matrix range     [1e-02, 5e+03]
  Objective range  [1e+00, 1e+00]
  Bounds range     [0e+00, 0e+00]
  RHS range        [1e+00, 5e+03]

MIP start from previous solve produced solution with objective -0 (0.03s)
Loaded MIP start from previous solve with objective -0

Presolve removed 992 rows and 961 columns
Presolve time: 0.02s
Presolved: 1440 rows, 1180 columns, 6380 nonzeros
Variable types: 1168 continuous, 12 integer (12 binary)

Root relaxation: objective 1.000000e+03, 678 iterations, 0.01 seconds (0.01 work units)

    Nodes    |    Current Node    |     Objective Bounds      |     Work
 Expl Unexpl |  Obj  Depth IntInf | Incumbent    BestBd   Gap | It/Node Time

     0     0 1000.00000    0    2   -0.00000 1000.00000      -     -    0s
     0     0 1000.00000    0    1   -0.00000 1000.00000      -     -    0s
     0     0 1000.00000    0    2   -0.00000 1000.00000      -     -    0s
     0     0 1000.00000    0    1   -0.00000 1000.00000      -     -    0s
H    0     0                       7.8387097 1000.00000      -     -    0s
     0     0 1000.00000    0    1    7.83871 1000.00000      -     -    0s
     0     0 1000.00000    0    2    7.83871 1000.00000      -     -    0s
